1 1 2 0
1 -3 4 0
1 -3 -5 0
1 3 -6 0
1 7 4 0
1 7 -8 0
1 7 -9 0
1 10 11 0
1 6 12 0
1 2 13 0
1 2 14 0
1 9 -7 0
1 -9 -15 0
1 9 -16 0
1 12 4 0
1 12 17 0
1 -18 -19 0
1 11 -20 0
1 11 -6 0
1 21 22 0
1 -22 -18 0
1 -22 -7 0
1 22 -23 0
1 22 11 0
1 24 25 0
1 24 26 0
1 24 -27 0
1 24 -28 0
1 -24 12 0
1 24 3 0
1 -4 -11 0
1 -29 15 0
1 -26 22 0
1 -26 20 0
1 25 -24 0
1 25 30 0
1 25 31 0
1 -20 -21 0
1 -20 31 0
1 -20 -28 0
1 -20 -32 0
1 -31 33 0
1 -31 20 0
1 34 26 0
1 -34 -32 0
1 -30 26 0
1 -35 -36 0
1 -37 38 0
1 37 -39 0
1 -37 40 0
1 8 -7 0
1 8 41 0
1 42 -14 0
1 42 43 0
1 42 8 0
1 -42 44 0
1 -38 45 0
1 38 14 0
1 38 44 0
1 -46 8 0
1 46 -37 0
1 -46 47 0
1 36 48 0
1 36 49 0
1 17 42 0
1 17 -50 0
1 -51 -39 0
1 -51 52 0
1 -14 42 0
1 53 54 0
1 53 8 0
1 53 55 0
1 -53 -15 0
1 40 56 0
1 -40 -13 0
1 -40 -8 0
1 40 57 0
1 -50 -8 0
1 50 51 0
1 -39 -56 0
1 39 58 0
1 39 -50 0
1 39 51 0
1 -15 13 0
1 15 53 0
1 -15 59 0
1 -13 -45 0
1 -13 -53 0
1 -57 16 0
1 -60 -58 0
1 -60 40 0
1 61 14 0
1 -61 -62 0
1 61 -59 0
1 59 -27 0
1 -59 63 0
1 -64 -15 0
1 64 65 0
1 66 13 0
1 66 -64 0
1 66 -67 0
1 66 -55 0
1 -66 -57 0
1 27 24 0
1 -27 68 0
1 -69 -24 0
1 69 -68 0
1 69 -5 0
1 69 -16 0
1 62 70 0
1 -62 71 0
1 -62 67 0
1 62 23 0
1 -63 61 0
1 72 60 0
1 -72 -73 0
1 -72 62 0
1 72 -32 0
1 74 72 0
1 -74 -6 0
1 74 75 0
1 -68 76 0
1 16 -60 0
1 -16 -76 0
1 -16 63 0
1 33 70 0
1 -33 30 0
1 33 -72 0
1 33 34 0
1 -32 70 0
1 -32 30 0
1 32 72 0
1 77 78 0
1 -23 -33 0
1 23 -79 0
1 -23 80 0
1 23 32 0
1 -81 82 0
1 -81 32 0
1 70 4 0
1 70 73 0
1 70 -62 0
1 -70 75 0
1 70 32 0
1 -70 63 0
1 -83 84 0
1 -80 -78 0
1 85 86 0
1 85 87 0
1 -85 88 0
1 79 -71 0
1 79 84 0
1 88 -87 0
1 88 79 0
1 88 -80 0
1 -88 20 0
1 87 31 0
1 -87 89 0
1 78 85 0
1 -78 -84 0
1 78 -80 0
1 -78 90 0
1 -84 -85 0
1 84 91 0
1 -84 80 0
1 -92 93 0
1 -94 -93 0
1 94 -95 0
1 96 97 0
1 96 98 0
1 96 99 0
1 -41 -98 0
1 -100 -101 0
1 -100 -52 0
1 -93 48 0
1 93 102 0
1 93 -103 0
1 -93 -96 0
1 93 92 0
1 -98 -104 0
1 -98 41 0
1 97 -96 0
1 -103 -105 0
1 103 -100 0
1 -103 106 0
1 107 -19 0
1 -107 105 0
1 52 108 0
1 52 93 0
1 -52 -36 0
1 52 -99 0
1 52 -109 0
1 48 105 0
1 48 -36 0
1 106 -44 0
1 106 110 0
1 -111 -58 0
1 -111 -112 0
1 -111 -44 0
1 99 41 0
1 99 113 0
1 -99 -96 0
1 -105 -114 0
1 -105 115 0
1 -44 -108 0
1 44 46 0
1 44 -45 0
1 44 111 0
1 -44 116 0
1 -44 15 0
1 -44 -101 0
1 -45 50 0
1 -45 115 0
1 117 57 0
1 -58 43 0
1 58 111 0
1 -58 -118 0
1 58 49 0
1 58 -117 0
1 58 39 0
1 108 -56 0
1 -108 119 0
1 108 -118 0
1 -108 -65 0
1 -109 120 0
1 109 -121 0
1 109 -116 0
1 -109 122 0
1 116 123 0
1 55 -53 0
1 -55 40 0
1 55 66 0
1 -67 -43 0
1 -67 64 0
1 -67 118 0
1 67 -124 0
1 67 -65 0
1 -65 108 0
1 65 -125 0
1 -65 -54 0
1 65 -124 0
1 65 63 0
1 -43 126 0
1 43 127 0
1 -43 124 0
1 -43 -128 0
1 124 67 0
1 -124 117 0
1 -124 -129 0
1 125 46 0
1 -125 -58 0
1 125 49 0
1 -49 56 0
1 -49 -126 0
1 49 -130 0
1 49 67 0
1 49 -117 0
1 127 61 0
1 -127 68 0
1 -127 -131 0
1 -129 43 0
1 -129 -54 0
1 -129 -59 0
1 129 -127 0
1 -129 124 0
1 132 -133 0
1 132 -134 0
1 132 135 0
1 132 16 0
1 76 -135 0
1 76 136 0
1 54 -76 0
1 -131 -73 0
1 131 -137 0
1 131 -40 0
1 -131 -129 0
1 133 -138 0
1 133 -50 0
1 -133 139 0
1 133 -129 0
1 135 139 0
1 135 127 0
1 135 67 0
1 -73 -68 0
1 75 134 0
1 75 -131 0
1 -86 140 0
1 -86 82 0
1 86 131 0
1 -86 141 0
1 82 -86 0
1 82 81 0
1 82 131 0
1 82 142 0
1 134 61 0
1 -134 -76 0
1 -143 132 0
1 -143 -144 0
1 143 145 0
1 -143 -82 0
1 -143 75 0
1 143 146 0
1 147 132 0
1 147 144 0
1 -142 -148 0
1 142 149 0
1 -142 -137 0
1 -142 75 0
1 -142 76 0
1 -150 -151 0
1 150 -81 0
1 -145 71 0
1 -145 -84 0
1 -152 78 0
1 -91 -151 0
1 -91 153 0
1 91 -154 0
1 91 155 0
1 -155 152 0
1 155 -156 0
1 151 -86 0
1 -140 -152 0
1 140 -68 0
1 140 144 0
1 -140 -145 0
1 -141 86 0
1 -141 16 0
1 157 158 0
1 -157 155 0
1 157 88 0
1 -156 154 0
1 156 -90 0
1 159 -154 0
1 159 160 0
1 159 23 0
1 154 157 0
1 154 -91 0
1 -154 -159 0
1 154 -161 0
1 -154 162 0
1 154 156 0
1 -163 152 0
1 163 -164 0
1 -163 -161 0
1 -163 -165 0
1 153 166 0
1 153 -167 0
1 -168 169 0
1 -168 89 0
1 168 -159 0
1 -170 165 0
1 171 -89 0
1 -171 166 0
1 -171 159 0
1 -172 173 0
1 172 -162 0
1 -89 160 0
1 -89 170 0
1 -90 -161 0
1 169 -84 0
1 169 -174 0
1 169 175 0
1 -176 177 0
1 -95 -94 0
1 178 -179 0
1 -178 -180 0
1 181 182 0
1 181 -183 0
1 177 -95 0
1 -177 -178 0
1 179 181 0
1 179 -177 0
1 179 -178 0
1 182 -95 0
1 -184 104 0
1 184 180 0
1 -184 183 0
1 104 -107 0
1 -185 186 0
1 -185 97 0
1 -185 180 0
1 187 -97 0
1 187 -185 0
1 187 179 0
1 -188 -183 0
1 183 -189 0
1 -183 115 0
1 183 -188 0
1 -183 -190 0
1 191 189 0
1 191 180 0
1 -180 191 0
1 -180 185 0
1 101 -192 0
1 -101 -100 0
1 -101 -93 0
1 115 105 0
1 113 -105 0
1 -113 193 0
1 113 183 0
1 114 -186 0
1 -114 105 0
1 114 -194 0
1 114 193 0
1 -114 -183 0
1 -194 -195 0
1 -194 -101 0
1 -194 185 0
1 186 196 0
1 186 101 0
1 -186 -185 0
1 -197 -192 0
1 -197 198 0
1 -192 199 0
1 192 200 0
1 192 -201 0
1 -192 197 0
1 192 -190 0
1 -195 102 0
1 -195 202 0
1 195 -109 0
1 120 203 0
1 -120 102 0
1 -120 195 0
1 120 106 0
1 122 -102 0
1 -122 -204 0
1 -122 -205 0
1 122 -110 0
1 -122 123 0
1 -123 -199 0
1 -123 -65 0
1 -193 102 0
1 193 206 0
1 193 136 0
1 -193 -123 0
1 102 114 0
1 102 -93 0
1 102 207 0
1 102 195 0
1 -102 123 0
1 -202 120 0
1 -202 122 0
1 202 -195 0
1 -202 123 0
1 203 114 0
1 -203 -208 0
1 203 -209 0
1 -203 -122 0
1 -203 113 0
1 203 -210 0
1 203 123 0
1 207 49 0
1 211 108 0
1 211 -118 0
1 -211 49 0
1 211 193 0
1 211 -110 0
1 130 -132 0
1 -130 -112 0
1 130 193 0
1 -130 110 0
1 -136 -212 0
1 136 -49 0
1 -136 -193 0
1 136 121 0
1 110 -112 0
1 -112 126 0
1 -112 -213 0
1 112 128 0
1 -112 136 0
1 112 -211 0
1 -205 -214 0
1 -205 -130 0
1 -205 -122 0
1 205 215 0
1 -205 136 0
1 -204 216 0
1 204 214 0
1 -204 -207 0
1 204 -205 0
1 -204 -123 0
1 -126 212 0
1 128 -133 0
1 -128 217 0
1 128 -206 0
1 128 110 0
1 139 -212 0
1 -139 217 0
1 139 -218 0
1 -139 219 0
1 139 213 0
1 -213 -133 0
1 -119 217 0
1 -119 137 0
1 -217 -119 0
1 217 -138 0
1 -217 -139 0
1 217 118 0
1 -217 -137 0
1 -217 -213 0
1 217 -128 0
1 121 -220 0
1 121 -126 0
1 -121 213 0
1 -121 -109 0
1 138 216 0
1 138 147 0
1 -137 -133 0
1 -137 -217 0
1 -137 -221 0
1 -222 223 0
1 -222 147 0
1 222 -149 0
1 -149 222 0
1 149 224 0
1 149 -225 0
1 149 -226 0
1 224 227 0
1 -224 213 0
1 -219 148 0
1 219 -228 0
1 -219 -137 0
1 -229 230 0
1 229 220 0
1 -229 125 0
1 229 231 0
1 229 232 0
1 -229 -213 0
1 218 -229 0
1 218 -138 0
1 148 -224 0
1 148 -233 0
1 -148 219 0
1 148 234 0
1 -144 -233 0
1 144 -219 0
1 144 235 0
1 -144 -143 0
1 -236 219 0
1 228 -232 0
1 233 -54 0
1 233 -237 0
1 235 -237 0
1 235 -165 0
1 235 -236 0
1 225 -228 0
1 -234 222 0
1 234 225 0
1 -234 144 0
1 -234 238 0
1 -234 -239 0
1 -167 -153 0
1 -167 235 0
1 165 153 0
1 165 -240 0
1 165 241 0
1 -165 -239 0
1 -166 242 0
1 243 244 0
1 -243 164 0
1 243 -228 0
1 243 -161 0
1 -243 -165 0
1 -243 236 0
1 146 -245 0
1 -146 -246 0
1 146 161 0
1 -146 143 0
1 247 248 0
1 -247 -249 0
1 -247 -245 0
1 -247 -250 0
1 241 251 0
1 -241 236 0
1 -161 243 0
1 161 252 0
1 164 253 0
1 246 169 0
1 -246 254 0
1 -244 -255 0
1 244 246 0
1 252 256 0
1 252 257 0
1 252 -253 0
1 -252 173 0
1 -252 244 0
1 252 -258 0
1 -253 -259 0
1 -253 -175 0
1 -253 -246 0
1 253 161 0
1 -253 165 0
1 260 256 0
1 -260 -244 0
1 -260 245 0
1 -175 -245 0
1 173 -253 0
1 173 -261 0
1 173 -89 0
1 -173 -175 0
1 -259 -254 0
1 -259 -262 0
1 -259 -263 0
1 257 253 0
1 257 -261 0
1 257 -262 0
1 254 -246 0
1 261 -257 0
1 -261 173 0
1 -261 -175 0
1 264 -261 0
1 264 265 0
1 264 -266 0
1 -264 -254 0
1 -264 262 0
1 264 -263 0
1 266 261 0
1 266 265 0
1 266 254 0
1 -266 -262 0
1 -267 268 0
1 267 269 0
1 -269 261 0
1 269 -265 0
1 -269 254 0
1 -265 -89 0
1 265 -264 0
1 -265 269 0
1 -265 266 0
1 -174 -169 0
1 174 267 0
1 190 270 0
1 -190 191 0
1 190 197 0
1 -190 271 0
1 190 180 0
1 189 -120 0
1 189 272 0
1 -189 183 0
1 201 270 0
1 201 -273 0
1 199 192 0
1 -199 274 0
1 199 -275 0
1 199 -123 0
1 271 209 0
1 -271 -179 0
1 271 210 0
1 -274 -199 0
1 -274 -189 0
1 274 -272 0
1 -272 -199 0
1 -272 -182 0
1 -276 192 0
1 -276 186 0
1 -276 -270 0
1 276 202 0
1 210 192 0
1 210 203 0
1 210 270 0
1 -210 194 0
1 210 -202 0
1 210 -271 0
1 210 211 0
1 -209 -200 0
1 -277 -203 0
1 277 270 0
1 277 -273 0
1 277 -136 0
1 273 -199 0
1 273 201 0
1 -273 -278 0
1 -273 277 0
1 279 199 0
1 279 201 0
1 -279 -273 0
1 -279 280 0
1 -281 282 0
1 -281 277 0
1 -275 277 0
1 -208 200 0
1 -206 198 0
1 206 202 0
1 214 279 0
1 214 -273 0
1 214 215 0
1 -215 273 0
1 215 283 0
1 284 -285 0
1 284 226 0
1 -284 -215 0
1 -284 -206 0
1 284 -277 0
1 -196 -216 0
1 -196 209 0
1 -196 284 0
1 -196 206 0
1 -198 -282 0
1 198 -214 0
1 -198 206 0
1 -200 -192 0
1 200 208 0
1 -200 209 0
1 200 -285 0
1 200 -206 0
1 216 138 0
1 -216 -286 0
1 216 -283 0
1 -221 196 0
1 221 -216 0
1 221 -283 0
1 -223 222 0
1 -223 287 0
1 -223 288 0
1 226 196 0
1 -226 -212 0
1 226 -149 0
1 226 284 0
1 226 283 0
1 226 288 0
1 226 -121 0
1 -289 -193 0
1 290 -216 0
1 -290 291 0
1 290 292 0
1 283 223 0
1 283 216 0
1 -283 -226 0
1 286 -293 0
1 286 223 0
1 -220 -212 0
1 294 119 0
1 294 -295 0
1 294 -144 0
1 294 -285 0
1 -230 -296 0
1 -230 289 0
1 -230 -297 0
1 -232 230 0
1 232 -288 0
1 -297 294 0
1 -295 -298 0
1 295 232 0
1 288 -299 0
1 -288 -294 0
1 288 -226 0
1 -287 -292 0
1 -287 -300 0
1 -231 -296 0
1 231 -301 0
1 231 297 0
1 -239 234 0
1 -239 -297 0
1 242 -302 0
1 -242 -297 0
1 -303 119 0
1 303 301 0
1 303 304 0
1 301 305 0
1 301 -217 0
1 306 307 0
1 306 -296 0
1 306 121 0
1 -296 -242 0
1 -296 308 0
1 250 -227 0
1 250 309 0
1 250 241 0
1 305 -227 0
1 305 302 0
1 -305 309 0
1 310 303 0
1 310 -311 0
1 310 -301 0
1 310 -312 0
1 310 241 0
1 255 303 0
1 -255 313 0
1 -255 -247 0
1 -227 314 0
1 227 224 0
1 -227 -239 0
1 309 -227 0
1 309 -242 0
1 309 315 0
1 309 -250 0
1 -302 305 0
1 -302 316 0
1 245 -309 0
1 245 146 0
1 248 -317 0
1 -248 -227 0
1 -248 -240 0
1 248 238 0
1 248 312 0
1 -318 260 0
1 318 -314 0
1 318 -319 0
1 -314 313 0
1 314 -249 0
1 -314 240 0
1 -313 -268 0
1 -313 -258 0
1 -312 268 0
1 312 318 0
1 -312 235 0
1 -311 314 0
1 -311 -255 0
1 311 238 0
1 311 320 0
1 -238 -314 0
1 238 -315 0
1 238 234 0
1 258 260 0
1 -256 321 0
1 -256 322 0
1 -256 313 0
1 -256 -323 0
1 268 319 0
1 324 256 0
1 324 318 0
1 324 325 0
1 319 324 0
1 319 146 0
1 -249 325 0
1 251 249 0
1 251 241 0
1 282 216 0
1 282 -326 0
1 282 -273 0
1 -282 -275 0
1 280 -279 0
1 -327 198 0
1 -327 -328 0
1 -329 -330 0
1 -329 -331 0
1 -329 -332 0
1 -329 -328 0
1 -331 -333 0
1 331 327 0
1 331 -270 0
1 -331 -280 0
1 332 -282 0
1 -326 329 0
1 -334 -335 0
1 -293 -286 0
1 293 336 0
1 -293 284 0
1 293 -283 0
1 -293 -332 0
1 285 200 0
1 285 -293 0
1 -285 286 0
1 285 284 0
1 333 -331 0
1 -333 -278 0
1 333 -328 0
1 337 330 0
1 -337 331 0
1 337 336 0
1 278 -293 0
1 -278 -337 0
1 278 273 0
1 -278 -285 0
1 330 338 0
1 336 -333 0
1 -336 -339 0
1 336 328 0
1 -328 339 0
1 -328 329 0
1 -300 340 0
1 300 289 0
1 341 342 0
1 341 -343 0
1 299 -344 0
1 299 340 0
1 -340 299 0
1 340 345 0
1 -340 300 0
1 -344 340 0
1 344 341 0
1 342 -346 0
1 -342 347 0
1 -342 339 0
1 -342 -299 0
1 -346 348 0
1 -346 -339 0
1 -346 -292 0
1 346 349 0
1 346 -350 0
1 -351 -306 0
1 351 -291 0
1 351 288 0
1 307 306 0
1 307 -305 0
1 -307 352 0
1 -307 291 0
1 307 -343 0
1 -345 306 0
1 345 344 0
1 345 -353 0
1 -345 310 0
1 -353 -306 0
1 353 -345 0
1 -343 -354 0
1 343 -351 0
1 -291 317 0
1 355 347 0
1 355 353 0
1 -355 -356 0
1 355 -349 0
1 -355 345 0
1 352 -286 0
1 352 357 0
1 352 345 0
1 -304 -303 0
1 304 349 0
1 317 303 0
1 317 -291 0
1 317 302 0
1 316 -291 0
1 -316 302 0
1 -316 358 0
1 354 -359 0
1 -358 -360 0
1 -298 321 0
1 298 -354 0
1 298 360 0
1 298 -304 0
1 -298 -320 0
1 361 -353 0
1 362 317 0
1 315 -227 0
1 -315 311 0
1 315 302 0
1 -321 -363 0
1 321 -308 0
1 -321 -315 0
1 360 268 0
1 360 364 0
1 -360 238 0
1 -320 311 0
1 320 298 0
1 320 -360 0
1 -320 238 0
1 365 316 0
1 -359 -360 0
1 308 -296 0
1 350 335 0
1 -350 346 0
1 350 328 0
1 339 346 0
1 -339 278 0
1 339 -350 0
1 366 367 0
1 -348 -353 0
1 348 -342 0
1 -368 369 0
1 -369 -368 0
1 369 356 0
1 369 349 0
1 369 350 0
1 -370 -339 0
1 -335 370 0
1 -349 -338 0
1 347 371 0
1 347 369 0
1 372 355 0
1 371 278 0
1 338 373 0
1 -338 -330 0
1 -374 -367 0
1 374 372 0
1 367 356 0
1 -357 352 0
1 357 315 0
1 357 -371 0
1 -357 -355 0
1 357 -343 0
1 357 -361 0
1 375 321 0
1 -375 376 0
1 375 343 0
1 375 -361 0
1 364 377 0
1 364 -376 0
1 -373 -320 0
1 -378 373 0
1 378 340 0
1 379 372 0
1 379 -357 0
1 376 -373 0
1 377 375 0
1 377 -364 0
